
        $ From http://www.csplib.org/Problems/prob009/data/helmut.pdf
        $ Problem number 28
        $ Sequence length : 24
        language ESSENCE' 1.0
        letting sizemaster be 201
        letting sizes be sequence(1,4,5,8,9,10,11,15,16,18,19,20,22,24,26,39,42,44,49,52,54,56,93,108)
        